NAME: ACTUAL_TOURS/amz2489
TYPE: TOUR
COMMENT: RouteID_16b6e969-80e0-46cf-a5be-2b583f188c83
DIMENSION: 145
TOUR_SECTION
15
43
136
122
79
32
78
36
104
117
24
42
87
14
111
80
126
93
38
112
84
76
59
70
110
47
16
69
143
86
123
133
115
102
62
90
39
9
7
72
23
77
120
118
21
108
89
144
34
129
140
137
98
114
119
83
45
82
95
5
88
56
127
109
85
29
37
121
145
13
20
52
51
19
61
17
58
1
73
100
31
11
107
53
26
48
113
92
6
97
27
105
103
125
12
116
130
49
141
8
54
124
65
46
96
132
18
35
33
40
25
139
128
81
101
68
30
41
66
138
71
10
28
64
55
2
4
3
91
131
75
106
142
74
22
57
44
60
94
135
50
134
67
99
63
-1
EOF
